50
    1   599   500
    2   741   776
    3   576   526
    4   160    79
    5   854   864
    6   568   518
    7   812   801
    8   723   680
    9   145   193
   10   721   766
   11   340   272
   12   890   847
   13   126   160
   14   616   632
   15   587   633
   16   877   969
   17   420   393
   18   246   212
   19   691   701
   20   382   474
   21   842   857
   22   396   420
   23   525   496
   24   420   475
   25     1     1
   26   551   492
   27  1008   958
   28   767   788
   29  1034   938
   30   859   875
   31    66   150
   32   938   856
   33    15    16
   34     1    25
   35   380   304
   36   631   541
   37   550   472
   38   362   281
   39   431   344
   40   716   739
   41   510   427
   42   764   838
   43   294   306
   44   835   890
   45   342   403
   46  1004   959
   47     6   102
   48   749   790
   49   440   419
   50    31    12
8723
